449 75
1334 1209
590 133
3738 2359
728 904
4032 950
1384 2712
1943 11
2620 98
911 1720
1324 1149
2382 545
2675 2896
3775 288
87 3855
691 3558
3093 2086
2371 2765
841 3172
840 3513
3753 1870
522 1846
3619 2740
3395 578
746 2627
1403 1763
2517 3057
3459 334
2979 1671
1829 1842
876 1034
810 3377
3369 1397
1940 224
935 2875
1069 326
1265 1054
942 1256
105 2850
2100 1542
688 1279
1598 3601
2577 2056
945 2139
1454 3341
2747 2722
3259 3308
2866 137
1201 2774
2846 1838
